p cnf 225 1683
1 2 3 4 5 0
6 7 8 9 10 0
11 12 13 14 15 0
16 17 18 19 20 0
21 22 23 24 25 0
26 27 28 29 30 0
31 32 33 34 35 0
36 37 38 39 40 0
41 42 43 44 45 0
46 47 48 49 50 0
51 52 53 54 55 0
56 57 58 59 60 0
61 62 63 64 65 0
66 67 68 69 70 0
71 72 73 74 75 0
76 77 78 79 80 0
81 82 83 84 85 0
86 87 88 89 90 0
91 92 93 94 95 0
96 97 98 99 100 0
101 102 103 104 105 0
106 107 108 109 110 0
111 112 113 114 115 0
116 117 118 119 120 0
121 122 123 124 125 0
126 127 128 129 130 0
131 132 133 134 135 0
136 137 138 139 140 0
141 142 143 144 145 0
146 147 148 149 150 0
151 152 153 154 155 0
156 157 158 159 160 0
161 162 163 164 165 0
166 167 168 169 170 0
171 172 173 174 175 0
176 177 178 179 180 0
181 182 183 184 185 0
186 187 188 189 190 0
191 192 193 194 195 0
196 197 198 199 200 0
201 202 203 204 205 0
206 207 208 209 210 0
211 212 213 214 215 0
216 217 218 219 220 0
221 222 223 224 225 0
-1 -2 0
-1 -3 0
-1 -4 0
-1 -5 0
-2 -3 0
-2 -4 0
-2 -5 0
-3 -4 0
-3 -5 0
-4 -5 0
-6 -7 0
-6 -8 0
-6 -9 0
-6 -10 0
-7 -8 0
-7 -9 0
-7 -10 0
-8 -9 0
-8 -10 0
-9 -10 0
-11 -12 0
-11 -13 0
-11 -14 0
-11 -15 0
-12 -13 0
-12 -14 0
-12 -15 0
-13 -14 0
-13 -15 0
-14 -15 0
-16 -17 0
-16 -18 0
-16 -19 0
-16 -20 0
-17 -18 0
-17 -19 0
-17 -20 0
-18 -19 0
-18 -20 0
-19 -20 0
-21 -22 0
-21 -23 0
-21 -24 0
-21 -25 0
-22 -23 0
-22 -24 0
-22 -25 0
-23 -24 0
-23 -25 0
-24 -25 0
-26 -27 0
-26 -28 0
-26 -29 0
-26 -30 0
-27 -28 0
-27 -29 0
-27 -30 0
-28 -29 0
-28 -30 0
-29 -30 0
-31 -32 0
-31 -33 0
-31 -34 0
-31 -35 0
-32 -33 0
-32 -34 0
-32 -35 0
-33 -34 0
-33 -35 0
-34 -35 0
-36 -37 0
-36 -38 0
-36 -39 0
-36 -40 0
-37 -38 0
-37 -39 0
-37 -40 0
-38 -39 0
-38 -40 0
-39 -40 0
-41 -42 0
-41 -43 0
-41 -44 0
-41 -45 0
-42 -43 0
-42 -44 0
-42 -45 0
-43 -44 0
-43 -45 0
-44 -45 0
-46 -47 0
-46 -48 0
-46 -49 0
-46 -50 0
-47 -48 0
-47 -49 0
-47 -50 0
-48 -49 0
-48 -50 0
-49 -50 0
-51 -52 0
-51 -53 0
-51 -54 0
-51 -55 0
-52 -53 0
-52 -54 0
-52 -55 0
-53 -54 0
-53 -55 0
-54 -55 0
-56 -57 0
-56 -58 0
-56 -59 0
-56 -60 0
-57 -58 0
-57 -59 0
-57 -60 0
-58 -59 0
-58 -60 0
-59 -60 0
-61 -62 0
-61 -63 0
-61 -64 0
-61 -65 0
-62 -63 0
-62 -64 0
-62 -65 0
-63 -64 0
-63 -65 0
-64 -65 0
-66 -67 0
-66 -68 0
-66 -69 0
-66 -70 0
-67 -68 0
-67 -69 0
-67 -70 0
-68 -69 0
-68 -70 0
-69 -70 0
-71 -72 0
-71 -73 0
-71 -74 0
-71 -75 0
-72 -73 0
-72 -74 0
-72 -75 0
-73 -74 0
-73 -75 0
-74 -75 0
-76 -77 0
-76 -78 0
-76 -79 0
-76 -80 0
-77 -78 0
-77 -79 0
-77 -80 0
-78 -79 0
-78 -80 0
-79 -80 0
-81 -82 0
-81 -83 0
-81 -84 0
-81 -85 0
-82 -83 0
-82 -84 0
-82 -85 0
-83 -84 0
-83 -85 0
-84 -85 0
-86 -87 0
-86 -88 0
-86 -89 0
-86 -90 0
-87 -88 0
-87 -89 0
-87 -90 0
-88 -89 0
-88 -90 0
-89 -90 0
-91 -92 0
-91 -93 0
-91 -94 0
-91 -95 0
-92 -93 0
-92 -94 0
-92 -95 0
-93 -94 0
-93 -95 0
-94 -95 0
-96 -97 0
-96 -98 0
-96 -99 0
-96 -100 0
-97 -98 0
-97 -99 0
-97 -100 0
-98 -99 0
-98 -100 0
-99 -100 0
-101 -102 0
-101 -103 0
-101 -104 0
-101 -105 0
-102 -103 0
-102 -104 0
-102 -105 0
-103 -104 0
-103 -105 0
-104 -105 0
-106 -107 0
-106 -108 0
-106 -109 0
-106 -110 0
-107 -108 0
-107 -109 0
-107 -110 0
-108 -109 0
-108 -110 0
-109 -110 0
-111 -112 0
-111 -113 0
-111 -114 0
-111 -115 0
-112 -113 0
-112 -114 0
-112 -115 0
-113 -114 0
-113 -115 0
-114 -115 0
-116 -117 0
-116 -118 0
-116 -119 0
-116 -120 0
-117 -118 0
-117 -119 0
-117 -120 0
-118 -119 0
-118 -120 0
-119 -120 0
-121 -122 0
-121 -123 0
-121 -124 0
-121 -125 0
-122 -123 0
-122 -124 0
-122 -125 0
-123 -124 0
-123 -125 0
-124 -125 0
-126 -127 0
-126 -128 0
-126 -129 0
-126 -130 0
-127 -128 0
-127 -129 0
-127 -130 0
-128 -129 0
-128 -130 0
-129 -130 0
-131 -132 0
-131 -133 0
-131 -134 0
-131 -135 0
-132 -133 0
-132 -134 0
-132 -135 0
-133 -134 0
-133 -135 0
-134 -135 0
-136 -137 0
-136 -138 0
-136 -139 0
-136 -140 0
-137 -138 0
-137 -139 0
-137 -140 0
-138 -139 0
-138 -140 0
-139 -140 0
-141 -142 0
-141 -143 0
-141 -144 0
-141 -145 0
-142 -143 0
-142 -144 0
-142 -145 0
-143 -144 0
-143 -145 0
-144 -145 0
-146 -147 0
-146 -148 0
-146 -149 0
-146 -150 0
-147 -148 0
-147 -149 0
-147 -150 0
-148 -149 0
-148 -150 0
-149 -150 0
-151 -152 0
-151 -153 0
-151 -154 0
-151 -155 0
-152 -153 0
-152 -154 0
-152 -155 0
-153 -154 0
-153 -155 0
-154 -155 0
-156 -157 0
-156 -158 0
-156 -159 0
-156 -160 0
-157 -158 0
-157 -159 0
-157 -160 0
-158 -159 0
-158 -160 0
-159 -160 0
-161 -162 0
-161 -163 0
-161 -164 0
-161 -165 0
-162 -163 0
-162 -164 0
-162 -165 0
-163 -164 0
-163 -165 0
-164 -165 0
-166 -167 0
-166 -168 0
-166 -169 0
-166 -170 0
-167 -168 0
-167 -169 0
-167 -170 0
-168 -169 0
-168 -170 0
-169 -170 0
-171 -172 0
-171 -173 0
-171 -174 0
-171 -175 0
-172 -173 0
-172 -174 0
-172 -175 0
-173 -174 0
-173 -175 0
-174 -175 0
-176 -177 0
-176 -178 0
-176 -179 0
-176 -180 0
-177 -178 0
-177 -179 0
-177 -180 0
-178 -179 0
-178 -180 0
-179 -180 0
-181 -182 0
-181 -183 0
-181 -184 0
-181 -185 0
-182 -183 0
-182 -184 0
-182 -185 0
-183 -184 0
-183 -185 0
-184 -185 0
-186 -187 0
-186 -188 0
-186 -189 0
-186 -190 0
-187 -188 0
-187 -189 0
-187 -190 0
-188 -189 0
-188 -190 0
-189 -190 0
-191 -192 0
-191 -193 0
-191 -194 0
-191 -195 0
-192 -193 0
-192 -194 0
-192 -195 0
-193 -194 0
-193 -195 0
-194 -195 0
-196 -197 0
-196 -198 0
-196 -199 0
-196 -200 0
-197 -198 0
-197 -199 0
-197 -200 0
-198 -199 0
-198 -200 0
-199 -200 0
-201 -202 0
-201 -203 0
-201 -204 0
-201 -205 0
-202 -203 0
-202 -204 0
-202 -205 0
-203 -204 0
-203 -205 0
-204 -205 0
-206 -207 0
-206 -208 0
-206 -209 0
-206 -210 0
-207 -208 0
-207 -209 0
-207 -210 0
-208 -209 0
-208 -210 0
-209 -210 0
-211 -212 0
-211 -213 0
-211 -214 0
-211 -215 0
-212 -213 0
-212 -214 0
-212 -215 0
-213 -214 0
-213 -215 0
-214 -215 0
-216 -217 0
-216 -218 0
-216 -219 0
-216 -220 0
-217 -218 0
-217 -219 0
-217 -220 0
-218 -219 0
-218 -220 0
-219 -220 0
-221 -222 0
-221 -223 0
-221 -224 0
-221 -225 0
-222 -223 0
-222 -224 0
-222 -225 0
-223 -224 0
-223 -225 0
-224 -225 0
-4 -28 0
-3 -30 0
-5 -29 0
-3 -28 0
-1 -27 0
-4 -29 0
-4 -27 0
-2 -26 0
-1 -26 0
-1 -30 0
-2 -27 0
-2 -29 0
-5 -41 0
-2 -42 0
-5 -43 0
-1 -42 0
-2 -45 0
-2 -43 0
-1 -41 0
-4 -45 0
-3 -42 0
-5 -42 0
-4 -44 0
-2 -44 0
-5 -90 0
-1 -88 0
-2 -88 0
-2 -86 0
-3 -89 0
-5 -88 0
-1 -89 0
-3 -86 0
-1 -86 0
-2 -87 0
-3 -87 0
-4 -90 0
-1 -149 0
-2 -148 0
-3 -150 0
-3 -148 0
-1 -147 0
-4 -148 0
-2 -150 0
-4 -146 0
-2 -149 0
-3 -149 0
-2 -146 0
-4 -149 0
-3 -213 0
-3 -212 0
-1 -214 0
-4 -211 0
-2 -211 0
-1 -211 0
-2 -215 0
-1 -212 0
-3 -215 0
-2 -214 0
-4 -213 0
-2 -213 0
-4 -221 0
-1 -222 0
-1 -221 0
-5 -221 0
-1 -224 0
-3 -223 0
-1 -225 0
-3 -224 0
-2 -221 0
-2 -222 0
-4 -225 0
-5 -225 0
-7 -38 0
-7 -39 0
-7 -36 0
-6 -40 0
-10 -40 0
-6 -39 0
-9 -38 0
-9 -39 0
-9 -36 0
-9 -40 0
-7 -37 0
-10 -36 0
-7 -44 0
-6 -45 0
-7 -45 0
-10 -43 0
-6 -41 0
-7 -41 0
-9 -45 0
-9 -44 0
-8 -44 0
-9 -43 0
-10 -42 0
-8 -41 0
-7 -83 0
-8 -83 0
-9 -85 0
-9 -82 0
-8 -81 0
-9 -84 0
-7 -81 0
-10 -83 0
-7 -82 0
-7 -84 0
-8 -84 0
-6 -85 0
-9 -112 0
-10 -115 0
-9 -114 0
-10 -111 0
-9 -111 0
-8 -112 0
-6 -115 0
-8 -115 0
-10 -112 0
-9 -115 0
-7 -112 0
-7 -115 0
-6 -123 0
-9 -123 0
-7 -123 0
-8 -124 0
-6 -124 0
-10 -124 0
-9 -121 0
-6 -122 0
-10 -122 0
-8 -123 0
-9 -124 0
-10 -123 0
-10 -134 0
-10 -133 0
-7 -131 0
-8 -135 0
-10 -132 0
-9 -135 0
-6 -132 0
-6 -134 0
-7 -133 0
-8 -134 0
-7 -135 0
-6 -135 0
-6 -189 0
-8 -186 0
-8 -187 0
-7 -189 0
-7 -187 0
-8 -190 0
-9 -186 0
-10 -188 0
-6 -187 0
-9 -188 0
-6 -190 0
-7 -186 0
-11 -109 0
-13 -107 0
-14 -108 0
-11 -107 0
-14 -107 0
-15 -108 0
-11 -106 0
-14 -110 0
-12 -106 0
-15 -110 0
-12 -110 0
-12 -107 0
-14 -115 0
-15 -113 0
-14 -111 0
-12 -113 0
-12 -111 0
-13 -114 0
-13 -113 0
-15 -111 0
-11 -114 0
-12 -115 0
-11 -112 0
-11 -111 0
-13 -131 0
-13 -132 0
-11 -135 0
-12 -133 0
-11 -134 0
-14 -135 0
-12 -134 0
-15 -132 0
-15 -133 0
-14 -132 0
-11 -131 0
-11 -132 0
-12 -211 0
-11 -214 0
-13 -212 0
-11 -211 0
-11 -215 0
-15 -213 0
-13 -211 0
-15 -211 0
-12 -215 0
-12 -212 0
-15 -212 0
-15 -214 0
-15 -223 0
-11 -222 0
-13 -222 0
-12 -221 0
-14 -222 0
-12 -224 0
-12 -225 0
-12 -223 0
-11 -224 0
-14 -225 0
-12 -222 0
-13 -223 0
-19 -126 0
-18 -126 0
-19 -130 0
-16 -128 0
-18 -129 0
-16 -129 0
-20 -127 0
-17 -128 0
-18 -130 0
-20 -129 0
-18 -128 0
-19 -127 0
-18 -221 0
-16 -221 0
-20 -223 0
-16 -225 0
-19 -221 0
-19 -223 0
-19 -222 0
-17 -224 0
-16 -222 0
-17 -225 0
-20 -222 0
-17 -222 0
-23 -43 0
-21 -45 0
-25 -42 0
-25 -44 0
-23 -42 0
-24 -42 0
-21 -42 0
-23 -41 0
-23 -45 0
-22 -42 0
-22 -43 0
-22 -45 0
-24 -92 0
-25 -95 0
-23 -93 0
-23 -95 0
-22 -94 0
-22 -95 0
-23 -92 0
-22 -91 0
-25 -93 0
-24 -93 0
-24 -95 0
-21 -93 0
-24 -106 0
-25 -110 0
-23 -107 0
-25 -109 0
-22 -109 0
-23 -108 0
-23 -109 0
-22 -110 0
-25 -108 0
-21 -106 0
-25 -106 0
-22 -108 0
-24 -129 0
-25 -126 0
-22 -130 0
-23 -130 0
-24 -126 0
-21 -129 0
-23 -129 0
-23 -126 0
-24 -127 0
-25 -127 0
-25 -128 0
-24 -128 0
-22 -209 0
-25 -206 0
-24 -207 0
-25 -208 0
-24 -209 0
-22 -208 0
-22 -210 0
-25 -207 0
-21 -207 0
-21 -208 0
-21 -209 0
-21 -206 0
-26 -36 0
-28 -37 0
-30 -38 0
-26 -39 0
-27 -37 0
-27 -38 0
-29 -38 0
-30 -40 0
-30 -36 0
-27 -39 0
-26 -38 0
-28 -40 0
-28 -52 0
-30 -54 0
-26 -55 0
-30 -51 0
-29 -55 0
-30 -52 0
-27 -52 0
-28 -55 0
-28 -51 0
-26 -54 0
-28 -54 0
-26 -52 0
-26 -61 0
-30 -63 0
-26 -62 0
-26 -65 0
-27 -62 0
-28 -64 0
-28 -65 0
-27 -65 0
-30 -61 0
-28 -62 0
-27 -61 0
-26 -63 0
-28 -67 0
-27 -67 0
-28 -69 0
-29 -66 0
-30 -66 0
-26 -70 0
-29 -69 0
-30 -68 0
-26 -66 0
-26 -67 0
-30 -67 0
-27 -69 0
-27 -89 0
-30 -89 0
-30 -88 0
-29 -86 0
-26 -87 0
-30 -87 0
-27 -90 0
-26 -89 0
-28 -90 0
-28 -87 0
-26 -86 0
-28 -88 0
-29 -210 0
-27 -209 0
-29 -206 0
-30 -210 0
-28 -207 0
-27 -208 0
-28 -206 0
-29 -208 0
-26 -209 0
-30 -207 0
-29 -209 0
-28 -210 0
-31 -56 0
-35 -59 0
-34 -57 0
-34 -59 0
-33 -59 0
-35 -57 0
-32 -57 0
-32 -60 0
-33 -60 0
-33 -57 0
-31 -58 0
-32 -58 0
-32 -140 0
-33 -140 0
-31 -136 0
-32 -138 0
-31 -140 0
-32 -139 0
-35 -139 0
-33 -139 0
-31 -138 0
-34 -138 0
-33 -137 0
-34 -136 0
-40 -114 0
-39 -115 0
-39 -112 0
-36 -111 0
-39 -113 0
-37 -111 0
-37 -114 0
-38 -112 0
-37 -112 0
-37 -113 0
-39 -111 0
-36 -112 0
-36 -131 0
-38 -131 0
-36 -135 0
-39 -132 0
-40 -135 0
-39 -133 0
-40 -134 0
-40 -131 0
-38 -133 0
-37 -133 0
-37 -132 0
-38 -134 0
-38 -224 0
-39 -222 0
-40 -222 0
-36 -222 0
-38 -221 0
-37 -225 0
-37 -224 0
-40 -221 0
-39 -224 0
-36 -223 0
-38 -222 0
-37 -222 0
-41 -88 0
-43 -86 0
-42 -89 0
-45 -86 0
-43 -90 0
-43 -87 0
-45 -90 0
-42 -87 0
-44 -89 0
-45 -89 0
-44 -87 0
-44 -86 0
-41 -110 0
-45 -107 0
-43 -106 0
-43 -108 0
-44 -106 0
-44 -108 0
-45 -108 0
-45 -106 0
-41 -107 0
-42 -110 0
-45 -110 0
-44 -109 0
-41 -116 0
-43 -117 0
-45 -117 0
-45 -120 0
-41 -119 0
-45 -116 0
-42 -117 0
-43 -116 0
-44 -118 0
-43 -118 0
-45 -118 0
-41 -120 0
-41 -124 0
-42 -124 0
-44 -122 0
-41 -125 0
-43 -122 0
-44 -121 0
-45 -125 0
-41 -121 0
-42 -121 0
-41 -123 0
-44 -125 0
-45 -122 0
-43 -127 0
-45 -130 0
-41 -129 0
-41 -128 0
-44 -127 0
-43 -129 0
-41 -130 0
-42 -127 0
-43 -126 0
-41 -127 0
-44 -129 0
-43 -128 0
-45 -145 0
-45 -142 0
-42 -141 0
-43 -141 0
-41 -141 0
-45 -141 0
-41 -145 0
-44 -143 0
-43 -145 0
-45 -144 0
-42 -144 0
-44 -144 0
-47 -204 0
-49 -201 0
-46 -203 0
-46 -205 0
-49 -203 0
-46 -201 0
-48 -204 0
-47 -201 0
-50 -202 0
-48 -205 0
-49 -202 0
-46 -204 0
-55 -63 0
-53 -61 0
-52 -62 0
-55 -64 0
-54 -63 0
-54 -62 0
-55 -65 0
-52 -63 0
-54 -64 0
-53 -62 0
-51 -65 0
-54 -61 0
-51 -95 0
-54 -91 0
-53 -91 0
-53 -95 0
-53 -94 0
-53 -93 0
-52 -92 0
-52 -95 0
-55 -91 0
-55 -95 0
-54 -92 0
-51 -93 0
-55 -101 0
-53 -104 0
-54 -104 0
-51 -105 0
-54 -105 0
-53 -101 0
-52 -102 0
-51 -103 0
-54 -102 0
-55 -104 0
-55 -103 0
-55 -105 0
-53 -120 0
-51 -118 0
-52 -118 0
-54 -119 0
-51 -119 0
-51 -120 0
-53 -116 0
-55 -118 0
-53 -119 0
-51 -116 0
-54 -116 0
-51 -117 0
-51 -129 0
-52 -128 0
-51 -127 0
-53 -127 0
-52 -130 0
-52 -127 0
-51 -126 0
-55 -128 0
-53 -126 0
-54 -126 0
-53 -128 0
-53 -129 0
-55 -140 0
-55 -136 0
-54 -137 0
-51 -139 0
-51 -137 0
-53 -137 0
-55 -137 0
-54 -138 0
-51 -136 0
-54 -136 0
-51 -140 0
-55 -138 0
-55 -174 0
-54 -171 0
-55 -173 0
-54 -175 0
-53 -173 0
-54 -173 0
-54 -174 0
-53 -172 0
-55 -172 0
-52 -174 0
-51 -171 0
-53 -175 0
-51 -207 0
-52 -209 0
-54 -206 0
-55 -207 0
-52 -206 0
-53 -206 0
-54 -209 0
-51 -206 0
-55 -210 0
-53 -210 0
-53 -209 0
-51 -209 0
-58 -85 0
-56 -84 0
-57 -81 0
-59 -85 0
-56 -85 0
-59 -81 0
-58 -83 0
-59 -83 0
-60 -84 0
-56 -82 0
-60 -82 0
-58 -81 0
-58 -89 0
-59 -86 0
-60 -87 0
-58 -88 0
-56 -90 0
-59 -89 0
-59 -90 0
-59 -87 0
-60 -90 0
-58 -90 0
-60 -86 0
-56 -86 0
-57 -187 0
-57 -190 0
-60 -186 0
-60 -190 0
-58 -186 0
-59 -188 0
-56 -188 0
-59 -187 0
-59 -189 0
-56 -190 0
-56 -189 0
-56 -186 0
-56 -215 0
-58 -214 0
-56 -214 0
-59 -215 0
-57 -215 0
-57 -214 0
-56 -211 0
-57 -212 0
-58 -215 0
-60 -211 0
-58 -212 0
-56 -212 0
-62 -75 0
-61 -75 0
-64 -75 0
-61 -73 0
-61 -71 0
-62 -72 0
-63 -72 0
-64 -71 0
-64 -72 0
-64 -73 0
-65 -73 0
-61 -72 0
-64 -96 0
-62 -98 0
-65 -98 0
-65 -100 0
-64 -99 0
-61 -98 0
-62 -96 0
-62 -97 0
-65 -97 0
-62 -99 0
-63 -99 0
-61 -96 0
-64 -136 0
-62 -136 0
-61 -139 0
-62 -139 0
-61 -140 0
-65 -139 0
-62 -140 0
-65 -136 0
-65 -140 0
-65 -138 0
-63 -139 0
-64 -138 0
-62 -173 0
-61 -171 0
-61 -172 0
-62 -172 0
-62 -171 0
-64 -173 0
-65 -173 0
-61 -174 0
-62 -175 0
-65 -175 0
-64 -174 0
-63 -174 0
-75 -85 0
-72 -82 0
-72 -85 0
-71 -81 0
-71 -85 0
-75 -84 0
-71 -82 0
-74 -85 0
-71 -83 0
-72 -84 0
-71 -84 0
-73 -81 0
-77 -186 0
-80 -188 0
-76 -186 0
-78 -188 0
-76 -189 0
-80 -187 0
-78 -186 0
-79 -187 0
-79 -189 0
-76 -188 0
-77 -188 0
-77 -189 0
-78 -191 0
-77 -195 0
-76 -191 0
-76 -192 0
-80 -194 0
-79 -191 0
-79 -192 0
-80 -191 0
-80 -192 0
-79 -195 0
-78 -193 0
-76 -195 0
-82 -132 0
-81 -131 0
-84 -131 0
-83 -134 0
-85 -135 0
-81 -134 0
-83 -132 0
-82 -134 0
-81 -133 0
-81 -135 0
-85 -134 0
-82 -131 0
-86 -100 0
-89 -96 0
-86 -98 0
-87 -99 0
-88 -97 0
-90 -96 0
-88 -100 0
-88 -99 0
-86 -96 0
-90 -97 0
-87 -97 0
-88 -96 0
-88 -133 0
-87 -135 0
-90 -132 0
-86 -131 0
-89 -135 0
-89 -131 0
-89 -133 0
-86 -133 0
-87 -131 0
-88 -131 0
-86 -135 0
-90 -131 0
-94 -135 0
-95 -133 0
-93 -133 0
-94 -133 0
-92 -134 0
-91 -135 0
-91 -131 0
-95 -132 0
-95 -134 0
-91 -133 0
-93 -134 0
-91 -134 0
-91 -163 0
-91 -162 0
-93 -165 0
-94 -162 0
-93 -161 0
-95 -165 0
-94 -164 0
-93 -163 0
-95 -162 0
-93 -162 0
-94 -165 0
-95 -164 0
-94 -225 0
-94 -223 0
-94 -221 0
-92 -225 0
-95 -225 0
-95 -222 0
-94 -224 0
-95 -221 0
-93 -225 0
-94 -222 0
-95 -223 0
-92 -222 0
-100 -147 0
-97 -149 0
-98 -149 0
-99 -150 0
-96 -147 0
-96 -150 0
-99 -146 0
-99 -147 0
-97 -146 0
-97 -148 0
-97 -150 0
-100 -150 0
-96 -162 0
-97 -165 0
-98 -165 0
-99 -162 0
-96 -161 0
-100 -162 0
-96 -164 0
-98 -161 0
-100 -165 0
-97 -161 0
-97 -162 0
-99 -165 0
-105 -122 0
-102 -124 0
-105 -121 0
-103 -122 0
-101 -125 0
-101 -122 0
-103 -123 0
-103 -121 0
-104 -121 0
-104 -122 0
-103 -124 0
-102 -122 0
-104 -201 0
-103 -202 0
-105 -201 0
-105 -204 0
-102 -202 0
-103 -203 0
-104 -205 0
-102 -201 0
-101 -205 0
-101 -202 0
-101 -201 0
-102 -203 0
-105 -210 0
-103 -208 0
-101 -208 0
-102 -210 0
-102 -208 0
-101 -209 0
-105 -209 0
-102 -209 0
-102 -206 0
-104 -206 0
-104 -209 0
-101 -210 0
-106 -123 0
-109 -124 0
-110 -124 0
-106 -122 0
-107 -125 0
-107 -121 0
-107 -124 0
-110 -125 0
-108 -125 0
-107 -122 0
-108 -122 0
-109 -123 0
-108 -126 0
-107 -127 0
-109 -129 0
-110 -126 0
-109 -127 0
-108 -127 0
-108 -129 0
-106 -130 0
-110 -130 0
-109 -128 0
-107 -128 0
-107 -129 0
-107 -144 0
-108 -144 0
-110 -143 0
-109 -142 0
-107 -141 0
-109 -144 0
-106 -142 0
-108 -145 0
-108 -141 0
-109 -143 0
-109 -145 0
-106 -145 0
-108 -180 0
-109 -179 0
-109 -178 0
-109 -177 0
-106 -176 0
-106 -177 0
-107 -178 0
-110 -177 0
-108 -176 0
-109 -180 0
-106 -180 0
-106 -179 0
-111 -169 0
-115 -167 0
-113 -166 0
-114 -169 0
-112 -168 0
-115 -166 0
-112 -170 0
-114 -167 0
-112 -166 0
-115 -168 0
-113 -167 0
-114 -166 0
-119 -173 0
-117 -172 0
-118 -173 0
-119 -172 0
-119 -175 0
-116 -175 0
-120 -175 0
-118 -174 0
-117 -175 0
-116 -173 0
-116 -172 0
-117 -173 0
-120 -203 0
-118 -204 0
-119 -205 0
-119 -202 0
-117 -204 0
-116 -203 0
-119 -204 0
-119 -203 0
-116 -204 0
-118 -205 0
-117 -205 0
-118 -201 0
-116 -213 0
-116 -214 0
-119 -214 0
-117 -214 0
-117 -211 0
-120 -214 0
-116 -211 0
-119 -215 0
-118 -211 0
-117 -212 0
-120 -212 0
-117 -215 0
-122 -157 0
-121 -159 0
-124 -156 0
-122 -159 0
-122 -160 0
-121 -158 0
-122 -156 0
-123 -156 0
-124 -158 0
-124 -160 0
-121 -157 0
-124 -157 0
-126 -149 0
-128 -147 0
-127 -150 0
-127 -146 0
-126 -148 0
-129 -148 0
-129 -147 0
-130 -146 0
-127 -147 0
-128 -146 0
-130 -148 0
-126 -146 0
-127 -218 0
-128 -220 0
-129 -220 0
-130 -219 0
-127 -216 0
-127 -217 0
-129 -219 0
-127 -219 0
-126 -217 0
-130 -216 0
-130 -220 0
-126 -220 0
-145 -150 0
-141 -148 0
-143 -150 0
-141 -146 0
-143 -149 0
-143 -146 0
-144 -147 0
-141 -150 0
-142 -146 0
-142 -150 0
-141 -147 0
-142 -147 0
-144 -182 0
-141 -185 0
-145 -181 0
-144 -183 0
-142 -185 0
-141 -181 0
-143 -184 0
-144 -184 0
-145 -185 0
-143 -182 0
-143 -183 0
-145 -184 0
-144 -207 0
-145 -210 0
-143 -207 0
-141 -208 0
-144 -208 0
-143 -209 0
-142 -208 0
-143 -210 0
-142 -210 0
-143 -206 0
-144 -209 0
-144 -206 0
-148 -151 0
-149 -152 0
-146 -151 0
-146 -154 0
-146 -155 0
-149 -154 0
-150 -155 0
-148 -154 0
-146 -153 0
-147 -154 0
-148 -155 0
-149 -153 0
-149 -188 0
-146 -190 0
-148 -189 0
-149 -190 0
-146 -187 0
-150 -190 0
-146 -189 0
-150 -187 0
-150 -189 0
-147 -187 0
-148 -186 0
-150 -186 0
-150 -212 0
-150 -213 0
-148 -212 0
-147 -213 0
-147 -212 0
-150 -211 0
-148 -213 0
-149 -211 0
-148 -211 0
-146 -215 0
-149 -214 0
-150 -215 0
-164 -222 0
-163 -224 0
-162 -224 0
-162 -222 0
-161 -221 0
-162 -221 0
-161 -222 0
-162 -225 0
-164 -225 0
-161 -225 0
-165 -225 0
-165 -222 0
-169 -223 0
-170 -225 0
-166 -224 0
-169 -222 0
-166 -221 0
-167 -223 0
-167 -221 0
-168 -222 0
-169 -224 0
-167 -225 0
-170 -222 0
-170 -221 0
-174 -222 0
-173 -221 0
-173 -222 0
-171 -225 0
-171 -222 0
-174 -221 0
-171 -224 0
-172 -221 0
-174 -224 0
-171 -221 0
-175 -221 0
-175 -223 0
-195 -196 0
-192 -200 0
-193 -199 0
-194 -198 0
-192 -199 0
-191 -196 0
-191 -197 0
-191 -200 0
-194 -199 0
-193 -200 0
-193 -196 0
-195 -199 0
-204 -206 0
-201 -209 0
-203 -207 0
-204 -207 0
-202 -209 0
-205 -209 0
-202 -208 0
-203 -208 0
-205 -206 0
-205 -207 0
-201 -206 0
-201 -207 0
-205 -221 0
-202 -224 0
-201 -224 0
-204 -225 0
-203 -221 0
-202 -225 0
-205 -225 0
-204 -223 0
-201 -223 0
-204 -222 0
-203 -222 0
-203 -223 0
-206 -212 0
-206 -215 0
-206 -211 0
-209 -212 0
-208 -211 0
-207 -215 0
-209 -213 0
-210 -212 0
-209 -214 0
-210 -211 0
-210 -215 0
-210 -213 0
-207 -222 0
-210 -223 0
-209 -224 0
-210 -224 0
-206 -225 0
-207 -224 0
-208 -225 0
-206 -221 0
-209 -223 0
-210 -222 0
-209 -225 0
-210 -225 0
-214 -221 0
-215 -221 0
-214 -224 0
-214 -223 0
-213 -221 0
-215 -224 0
-212 -223 0
-215 -223 0
-211 -222 0
-214 -222 0
-213 -225 0
-215 -225 0
